param n:=10;
param v:=3;


param T:
	0	1	2	3	4	5	6	7	8	9	10=
0	.	21	22	20	14	7	19	8	15	19	18	
1	21	.	34	38	14	28	30	24	14	39	19	
2	22	34	.	37	35	22	4	29	20	33	40	
3	20	38	37	.	26	15	36	14	36	5	24	
4	14	14	35	26	.	20	32	13	20	27	6	
5	7	28	22	15	20	.	21	9	21	13	22	
6	19	30	4	36	32	21	.	27	16	32	37	
7	8	24	29	14	13	9	27	.	22	14	13	
8	15	14	20	36	20	21	16	22	.	34	26	
9	19	39	33	5	27	13	32	14	34	.	27	
10	18	19	40	24	6	22	37	13	26	27	.	
;

param Q:=
1	1.0
2	12.0
3	16.0
4	11.0
5	11.0
6	2.0
7	8.0
8	3.0
9	8.0
10	9.0
